p cnf 42 452 
39 0
12 0
31 0
-41 0
18 0
4 0
42 0
-3 0
26 28 0
-1 -36 0
11 8 0
-29 -34 0
7 23 16 0
-10 -16 0
25 32 20 0
-14 -20 0
6 37 0
-6 -37 0
-37 -6 0
-22 0
-35 0
13 0
9 0
-40 0
15 0
-33 0
17 0
-26 -11 22 22 2 -39 0
-26 -11 22 22 -2 39 0
-26 -8 22 40 2 -39 0
-26 -8 22 40 -2 39 0
-28 -11 40 22 2 -39 0
-28 -11 40 22 -2 39 0
-28 -8 40 40 2 -39 0
-28 -8 40 40 -2 39 0
-26 -11 22 -22 2 -12 0
-26 -11 22 -22 -2 12 0
-26 -8 22 -40 2 -12 0
-26 -8 22 -40 -2 12 0
-28 -11 40 -22 2 -12 0
-28 -11 40 -22 -2 12 0
-28 -8 40 -40 2 -12 0
-28 -8 40 -40 -2 12 0
-26 -11 -22 22 2 -31 0
-26 -11 -22 22 -2 31 0
-26 -8 -22 40 2 -31 0
-26 -8 -22 40 -2 31 0
-28 -11 -40 22 2 -31 0
-28 -11 -40 22 -2 31 0
-28 -8 -40 40 2 -31 0
-28 -8 -40 40 -2 31 0
-26 -11 -22 -22 2 -41 0
-26 -11 -22 -22 -2 41 0
-26 -8 -22 -40 2 -41 0
-26 -8 -22 -40 -2 41 0
-28 -11 -40 -22 2 -41 0
-28 -11 -40 -22 -2 41 0
-28 -8 -40 -40 2 -41 0
-28 -8 -40 -40 -2 41 0
-26 -11 35 35 38 -39 0
-26 -11 35 35 -38 39 0
-26 -8 35 15 38 -39 0
-26 -8 35 15 -38 39 0
-28 -11 15 35 38 -39 0
-28 -11 15 35 -38 39 0
-28 -8 15 15 38 -39 0
-28 -8 15 15 -38 39 0
-26 -11 35 -35 38 -12 0
-26 -11 35 -35 -38 12 0
-26 -8 35 -15 38 -12 0
-26 -8 35 -15 -38 12 0
-28 -11 15 -35 38 -12 0
-28 -11 15 -35 -38 12 0
-28 -8 15 -15 38 -12 0
-28 -8 15 -15 -38 12 0
-26 -11 -35 35 38 -31 0
-26 -11 -35 35 -38 31 0
-26 -8 -35 15 38 -31 0
-26 -8 -35 15 -38 31 0
-28 -11 -15 35 38 -31 0
-28 -11 -15 35 -38 31 0
-28 -8 -15 15 38 -31 0
-28 -8 -15 15 -38 31 0
-26 -11 -35 -35 38 -41 0
-26 -11 -35 -35 -38 41 0
-26 -8 -35 -15 38 -41 0
-26 -8 -35 -15 -38 41 0
-28 -11 -15 -35 38 -41 0
-28 -11 -15 -35 -38 41 0
-28 -8 -15 -15 38 -41 0
-28 -8 -15 -15 -38 41 0
-26 -11 13 13 24 -39 0
-26 -11 13 13 -24 39 0
-26 -8 13 33 24 -39 0
-26 -8 13 33 -24 39 0
-28 -11 33 13 24 -39 0
-28 -11 33 13 -24 39 0
-28 -8 33 33 24 -39 0
-28 -8 33 33 -24 39 0
-26 -11 13 -13 24 -12 0
-26 -11 13 -13 -24 12 0
-26 -8 13 -33 24 -12 0
-26 -8 13 -33 -24 12 0
-28 -11 33 -13 24 -12 0
-28 -11 33 -13 -24 12 0
-28 -8 33 -33 24 -12 0
-28 -8 33 -33 -24 12 0
-26 -11 -13 13 24 -31 0
-26 -11 -13 13 -24 31 0
-26 -8 -13 33 24 -31 0
-26 -8 -13 33 -24 31 0
-28 -11 -33 13 24 -31 0
-28 -11 -33 13 -24 31 0
-28 -8 -33 33 24 -31 0
-28 -8 -33 33 -24 31 0
-26 -11 -13 -13 24 -41 0
-26 -11 -13 -13 -24 41 0
-26 -8 -13 -33 24 -41 0
-26 -8 -13 -33 -24 41 0
-28 -11 -33 -13 24 -41 0
-28 -11 -33 -13 -24 41 0
-28 -8 -33 -33 24 -41 0
-28 -8 -33 -33 -24 41 0
-26 -11 9 9 19 -39 0
-26 -11 9 9 -19 39 0
-26 -8 9 17 19 -39 0
-26 -8 9 17 -19 39 0
-28 -11 17 9 19 -39 0
-28 -11 17 9 -19 39 0
-28 -8 17 17 19 -39 0
-28 -8 17 17 -19 39 0
-26 -11 9 -9 19 -12 0
-26 -11 9 -9 -19 12 0
-26 -8 9 -17 19 -12 0
-26 -8 9 -17 -19 12 0
-28 -11 17 -9 19 -12 0
-28 -11 17 -9 -19 12 0
-28 -8 17 -17 19 -12 0
-28 -8 17 -17 -19 12 0
-26 -11 -9 9 19 -31 0
-26 -11 -9 9 -19 31 0
-26 -8 -9 17 19 -31 0
-26 -8 -9 17 -19 31 0
-28 -11 -17 9 19 -31 0
-28 -11 -17 9 -19 31 0
-28 -8 -17 17 19 -31 0
-28 -8 -17 17 -19 31 0
-26 -11 -9 -9 19 -41 0
-26 -11 -9 -9 -19 41 0
-26 -8 -9 -17 19 -41 0
-26 -8 -9 -17 -19 41 0
-28 -11 -17 -9 19 -41 0
-28 -11 -17 -9 -19 41 0
-28 -8 -17 -17 19 -41 0
-28 -8 -17 -17 -19 41 0
-7 -25 22 22 21 -18 0
-7 -25 22 22 -21 18 0
-7 -32 22 40 21 -18 0
-7 -32 22 40 -21 18 0
-7 -20 22 2 21 -18 0
-7 -20 22 2 -21 18 0
-23 -25 40 22 21 -18 0
-23 -25 40 22 -21 18 0
-23 -32 40 40 21 -18 0
-23 -32 40 40 -21 18 0
-23 -20 40 2 21 -18 0
-23 -20 40 2 -21 18 0
-16 -25 2 22 21 -18 0
-16 -25 2 22 -21 18 0
-16 -32 2 40 21 -18 0
-16 -32 2 40 -21 18 0
-16 -20 2 2 21 -18 0
-16 -20 2 2 -21 18 0
-7 -25 22 -22 21 -4 0
-7 -25 22 -22 -21 4 0
-7 -32 22 -40 21 -4 0
-7 -32 22 -40 -21 4 0
-7 -20 22 -2 21 -4 0
-7 -20 22 -2 -21 4 0
-23 -25 40 -22 21 -4 0
-23 -25 40 -22 -21 4 0
-23 -32 40 -40 21 -4 0
-23 -32 40 -40 -21 4 0
-23 -20 40 -2 21 -4 0
-23 -20 40 -2 -21 4 0
-16 -25 2 -22 21 -4 0
-16 -25 2 -22 -21 4 0
-16 -32 2 -40 21 -4 0
-16 -32 2 -40 -21 4 0
-16 -20 2 -2 21 -4 0
-16 -20 2 -2 -21 4 0
-7 -25 -22 22 21 -42 0
-7 -25 -22 22 -21 42 0
-7 -32 -22 40 21 -42 0
-7 -32 -22 40 -21 42 0
-7 -20 -22 2 21 -42 0
-7 -20 -22 2 -21 42 0
-23 -25 -40 22 21 -42 0
-23 -25 -40 22 -21 42 0
-23 -32 -40 40 21 -42 0
-23 -32 -40 40 -21 42 0
-23 -20 -40 2 21 -42 0
-23 -20 -40 2 -21 42 0
-16 -25 -2 22 21 -42 0
-16 -25 -2 22 -21 42 0
-16 -32 -2 40 21 -42 0
-16 -32 -2 40 -21 42 0
-16 -20 -2 2 21 -42 0
-16 -20 -2 2 -21 42 0
-7 -25 -22 -22 21 -3 0
-7 -25 -22 -22 -21 3 0
-7 -32 -22 -40 21 -3 0
-7 -32 -22 -40 -21 3 0
-7 -20 -22 -2 21 -3 0
-7 -20 -22 -2 -21 3 0
-23 -25 -40 -22 21 -3 0
-23 -25 -40 -22 -21 3 0
-23 -32 -40 -40 21 -3 0
-23 -32 -40 -40 -21 3 0
-23 -20 -40 -2 21 -3 0
-23 -20 -40 -2 -21 3 0
-16 -25 -2 -22 21 -3 0
-16 -25 -2 -22 -21 3 0
-16 -32 -2 -40 21 -3 0
-16 -32 -2 -40 -21 3 0
-16 -20 -2 -2 21 -3 0
-16 -20 -2 -2 -21 3 0
-7 -25 35 35 27 -18 0
-7 -25 35 35 -27 18 0
-7 -32 35 15 27 -18 0
-7 -32 35 15 -27 18 0
-7 -20 35 38 27 -18 0
-7 -20 35 38 -27 18 0
-23 -25 15 35 27 -18 0
-23 -25 15 35 -27 18 0
-23 -32 15 15 27 -18 0
-23 -32 15 15 -27 18 0
-23 -20 15 38 27 -18 0
-23 -20 15 38 -27 18 0
-16 -25 38 35 27 -18 0
-16 -25 38 35 -27 18 0
-16 -32 38 15 27 -18 0
-16 -32 38 15 -27 18 0
-16 -20 38 38 27 -18 0
-16 -20 38 38 -27 18 0
-7 -25 35 -35 27 -4 0
-7 -25 35 -35 -27 4 0
-7 -32 35 -15 27 -4 0
-7 -32 35 -15 -27 4 0
-7 -20 35 -38 27 -4 0
-7 -20 35 -38 -27 4 0
-23 -25 15 -35 27 -4 0
-23 -25 15 -35 -27 4 0
-23 -32 15 -15 27 -4 0
-23 -32 15 -15 -27 4 0
-23 -20 15 -38 27 -4 0
-23 -20 15 -38 -27 4 0
-16 -25 38 -35 27 -4 0
-16 -25 38 -35 -27 4 0
-16 -32 38 -15 27 -4 0
-16 -32 38 -15 -27 4 0
-16 -20 38 -38 27 -4 0
-16 -20 38 -38 -27 4 0
-7 -25 -35 35 27 -42 0
-7 -25 -35 35 -27 42 0
-7 -32 -35 15 27 -42 0
-7 -32 -35 15 -27 42 0
-7 -20 -35 38 27 -42 0
-7 -20 -35 38 -27 42 0
-23 -25 -15 35 27 -42 0
-23 -25 -15 35 -27 42 0
-23 -32 -15 15 27 -42 0
-23 -32 -15 15 -27 42 0
-23 -20 -15 38 27 -42 0
-23 -20 -15 38 -27 42 0
-16 -25 -38 35 27 -42 0
-16 -25 -38 35 -27 42 0
-16 -32 -38 15 27 -42 0
-16 -32 -38 15 -27 42 0
-16 -20 -38 38 27 -42 0
-16 -20 -38 38 -27 42 0
-7 -25 -35 -35 27 -3 0
-7 -25 -35 -35 -27 3 0
-7 -32 -35 -15 27 -3 0
-7 -32 -35 -15 -27 3 0
-7 -20 -35 -38 27 -3 0
-7 -20 -35 -38 -27 3 0
-23 -25 -15 -35 27 -3 0
-23 -25 -15 -35 -27 3 0
-23 -32 -15 -15 27 -3 0
-23 -32 -15 -15 -27 3 0
-23 -20 -15 -38 27 -3 0
-23 -20 -15 -38 -27 3 0
-16 -25 -38 -35 27 -3 0
-16 -25 -38 -35 -27 3 0
-16 -32 -38 -15 27 -3 0
-16 -32 -38 -15 -27 3 0
-16 -20 -38 -38 27 -3 0
-16 -20 -38 -38 -27 3 0
-7 -25 13 13 5 -18 0
-7 -25 13 13 -5 18 0
-7 -32 13 33 5 -18 0
-7 -32 13 33 -5 18 0
-7 -20 13 24 5 -18 0
-7 -20 13 24 -5 18 0
-23 -25 33 13 5 -18 0
-23 -25 33 13 -5 18 0
-23 -32 33 33 5 -18 0
-23 -32 33 33 -5 18 0
-23 -20 33 24 5 -18 0
-23 -20 33 24 -5 18 0
-16 -25 24 13 5 -18 0
-16 -25 24 13 -5 18 0
-16 -32 24 33 5 -18 0
-16 -32 24 33 -5 18 0
-16 -20 24 24 5 -18 0
-16 -20 24 24 -5 18 0
-7 -25 13 -13 5 -4 0
-7 -25 13 -13 -5 4 0
-7 -32 13 -33 5 -4 0
-7 -32 13 -33 -5 4 0
-7 -20 13 -24 5 -4 0
-7 -20 13 -24 -5 4 0
-23 -25 33 -13 5 -4 0
-23 -25 33 -13 -5 4 0
-23 -32 33 -33 5 -4 0
-23 -32 33 -33 -5 4 0
-23 -20 33 -24 5 -4 0
-23 -20 33 -24 -5 4 0
-16 -25 24 -13 5 -4 0
-16 -25 24 -13 -5 4 0
-16 -32 24 -33 5 -4 0
-16 -32 24 -33 -5 4 0
-16 -20 24 -24 5 -4 0
-16 -20 24 -24 -5 4 0
-7 -25 -13 13 5 -42 0
-7 -25 -13 13 -5 42 0
-7 -32 -13 33 5 -42 0
-7 -32 -13 33 -5 42 0
-7 -20 -13 24 5 -42 0
-7 -20 -13 24 -5 42 0
-23 -25 -33 13 5 -42 0
-23 -25 -33 13 -5 42 0
-23 -32 -33 33 5 -42 0
-23 -32 -33 33 -5 42 0
-23 -20 -33 24 5 -42 0
-23 -20 -33 24 -5 42 0
-16 -25 -24 13 5 -42 0
-16 -25 -24 13 -5 42 0
-16 -32 -24 33 5 -42 0
-16 -32 -24 33 -5 42 0
-16 -20 -24 24 5 -42 0
-16 -20 -24 24 -5 42 0
-7 -25 -13 -13 5 -3 0
-7 -25 -13 -13 -5 3 0
-7 -32 -13 -33 5 -3 0
-7 -32 -13 -33 -5 3 0
-7 -20 -13 -24 5 -3 0
-7 -20 -13 -24 -5 3 0
-23 -25 -33 -13 5 -3 0
-23 -25 -33 -13 -5 3 0
-23 -32 -33 -33 5 -3 0
-23 -32 -33 -33 -5 3 0
-23 -20 -33 -24 5 -3 0
-23 -20 -33 -24 -5 3 0
-16 -25 -24 -13 5 -3 0
-16 -25 -24 -13 -5 3 0
-16 -32 -24 -33 5 -3 0
-16 -32 -24 -33 -5 3 0
-16 -20 -24 -24 5 -3 0
-16 -20 -24 -24 -5 3 0
-7 -25 9 9 30 -18 0
-7 -25 9 9 -30 18 0
-7 -32 9 17 30 -18 0
-7 -32 9 17 -30 18 0
-7 -20 9 19 30 -18 0
-7 -20 9 19 -30 18 0
-23 -25 17 9 30 -18 0
-23 -25 17 9 -30 18 0
-23 -32 17 17 30 -18 0
-23 -32 17 17 -30 18 0
-23 -20 17 19 30 -18 0
-23 -20 17 19 -30 18 0
-16 -25 19 9 30 -18 0
-16 -25 19 9 -30 18 0
-16 -32 19 17 30 -18 0
-16 -32 19 17 -30 18 0
-16 -20 19 19 30 -18 0
-16 -20 19 19 -30 18 0
-7 -25 9 -9 30 -4 0
-7 -25 9 -9 -30 4 0
-7 -32 9 -17 30 -4 0
-7 -32 9 -17 -30 4 0
-7 -20 9 -19 30 -4 0
-7 -20 9 -19 -30 4 0
-23 -25 17 -9 30 -4 0
-23 -25 17 -9 -30 4 0
-23 -32 17 -17 30 -4 0
-23 -32 17 -17 -30 4 0
-23 -20 17 -19 30 -4 0
-23 -20 17 -19 -30 4 0
-16 -25 19 -9 30 -4 0
-16 -25 19 -9 -30 4 0
-16 -32 19 -17 30 -4 0
-16 -32 19 -17 -30 4 0
-16 -20 19 -19 30 -4 0
-16 -20 19 -19 -30 4 0
-7 -25 -9 9 30 -42 0
-7 -25 -9 9 -30 42 0
-7 -32 -9 17 30 -42 0
-7 -32 -9 17 -30 42 0
-7 -20 -9 19 30 -42 0
-7 -20 -9 19 -30 42 0
-23 -25 -17 9 30 -42 0
-23 -25 -17 9 -30 42 0
-23 -32 -17 17 30 -42 0
-23 -32 -17 17 -30 42 0
-23 -20 -17 19 30 -42 0
-23 -20 -17 19 -30 42 0
-16 -25 -19 9 30 -42 0
-16 -25 -19 9 -30 42 0
-16 -32 -19 17 30 -42 0
-16 -32 -19 17 -30 42 0
-16 -20 -19 19 30 -42 0
-16 -20 -19 19 -30 42 0
-7 -25 -9 -9 30 -3 0
-7 -25 -9 -9 -30 3 0
-7 -32 -9 -17 30 -3 0
-7 -32 -9 -17 -30 3 0
-7 -20 -9 -19 30 -3 0
-7 -20 -9 -19 -30 3 0
-23 -25 -17 -9 30 -3 0
-23 -25 -17 -9 -30 3 0
-23 -32 -17 -17 30 -3 0
-23 -32 -17 -17 -30 3 0
-23 -20 -17 -19 30 -3 0
-23 -20 -17 -19 -30 3 0
-16 -25 -19 -9 30 -3 0
-16 -25 -19 -9 -30 3 0
-16 -32 -19 -17 30 -3 0
-16 -32 -19 -17 -30 3 0
-16 -20 -19 -19 30 -3 0
-16 -20 -19 -19 -30 3 0
-6 -2 0
-6 38 0
-6 24 0
-6 19 0
-37 -21 0
-37 27 0
-37 5 0
-37 30 0
37 0
